============================[ Problem Statistics ]=============================|                                                                             ||  Number of variables:          4242                                         ||  Number of clauses:           10325                                         ||  Parse time:                   0.71 s                                       ||                                                                             |============================[ Search Statistics ]==============================| Conflicts |          ORIGINAL         |          LEARNT          | Progress ||           |    Vars  Clauses Literals |    Limit  Clauses Lit/Cl |          |===============================================================================|       100 |    1591     6530  1136631 |     2394      100     53 | 62.501 % ||       250 |    1591     6530  1136631 |     2633      250     75 | 62.495 % |===============================================================================restarts              : 3conflicts             : 387            (361 /sec)decisions             : 652            (0.00 % random) (608 /sec)propagations          : 12029          (11221 /sec)conflict literals     : 31954          (94.57 % deleted)CPU time              : 1.072 sSATISFIABLE